StudentsNr = 5;
InstructorsNr = 8;
DaysNr = 1;
SlotsPerDay = 8;
AvailabilitySlotsLenght = 2;
RoomNr = 2;
ProgrammNr = 1;
DegreeNr = 2;
RolesNr = 3;
CoursesNr = 5;
InstructorsProgramm = [{1}, {1}, {1}, {1}, {1}, {1}, {1}, {1}];
InstructorRolesPerProgramm = [|{4, 5, 6, 7, 8}, {2, 4}, {3, 6, 7}|];
InstructorsAvailability = [|1, 0, 1, 1, |1, 1, 1, 1, |1, 0, 0, 0, |1, 1, 1, 1, |0, 0, 1, 1, |1, 0, 1, 0, |1, 1, 1, 1, |1, 1, 1, 0|];
StudentsProgramm = [1, 1, 1, 1, 1];
StudentsDegree = [2, 1, 1, 1, 1];
StudentsSupervisorId = [7, 2, 7, 4, 2];
StudentsCourseIds = [{2, 5}, {4, 5}, {4, 5}, {1, 3}, {2, 5}];
StudentsAvailability = [|1, 1, 1, 1, |1, 1, 1, 0, |0, 0, 0, 1, |1, 1, 1, 1, |0, 1, 1, 1|];
TheoryticalMinCard = [0, 0, 0, 0, 0];
CoursesInstructorIds = [{4, 8}, {5}, {3, 4, 5, 6, 7}, {3, 4}, {2}];
RolesDemands = [4, 1, 3];
RolesContinuity = [2, 1];
ExamLen = [1, 1, 1, 1, 1];
LunchTsMinLen = 0;
LunchStarts = [5..6];
SupervisorAvailable = 5;
OptimalLunchLenght = [2, 1];
OptimalStartTs = [1, 2];
OptimalFinishTs = [1, 7];
MinimizeRooms = 400;
RolesSoftContinuity = [|1, 2, 3|2, 1, 0|];
SameDegreeInRoom = 10;
Mergeability = 0;
